32 10000
36 8669
58 2429
70 7144
15 1916
42 8497
58 9362
55 9785
45 9791
50 4510
71 3004
3 7704
26 5921
2 830
81 7937
64 6533
1 835
48 5425
93 8032
64 7331
10 9347
98 1186
89 5470
63 80
61 3817
56 5805
66 4170
13 5118
89 3387
78 3185
66 9717
46 9975
7 6859
